unsat
(:max-memory         18.72
 :memory             18.52
 :nlsat-arith-var    3
 :nlsat-atoms        10
 :nlsat-bool-var     1
 :nlsat-clauses      8
 :nlsat-conflicts    3
 :nlsat-propagations 10
 :nlsat-stages       3
 :num-allocs         111764
 :rlimit-count       36578
 :time               0.03
 :total-time         0.04)
